n = 18;

R =
[|0,0,0,0,0,0,0,0,0,0,0,0,0,0,0,2,2,0,
 |0,0,0,0,0,0,0,7,7,7,7,7,7,7,0,0,0,0,
 |1,0,7,7,7,7,7,7,7,0,0,0,0,0,0,0,0,0,
 |0,1,0,0,6,6,6,6,6,6,0,0,0,0,0,0,0,0,
 |1,5,5,5,5,5,0,0,7,0,0,0,2,1,0,0,0,0,
 |0,1,0,0,0,0,0,0,7,0,0,0,2,0,0,3,0,0,
 |0,0,0,1,0,0,0,0,7,0,5,5,5,5,5,3,8,0,
 |5,0,0,4,0,0,0,0,7,6,1,0,0,0,0,3,8,0,
 |5,0,2,4,1,0,0,2,7,6,0,0,0,0,0,0,8,0,
 |5,0,2,4,3,3,3,2,7,6,0,0,0,8,0,0,8,0,
 |5,0,0,4,0,0,0,0,7,6,0,0,0,8,0,0,8,0,
 |5,0,0,0,0,0,0,0,0,6,0,0,0,8,5,0,8,0,
 |2,2,0,6,6,6,6,6,6,6,0,0,0,8,5,0,8,0,
 |0,0,0,0,0,4,4,4,4,0,0,1,0,8,5,0,8,0,
 |0,0,0,0,0,0,0,0,0,1,3,3,3,8,5,0,0,0,
 |4,4,4,4,0,0,0,0,0,0,0,0,0,8,5,0,0,0,
 |0,0,0,0,7,7,7,7,7,7,7,0,0,8,0,0,0,0,
 |0,0,0,5,5,5,5,5,0,0,0,0,5,5,5,5,5,0,
 |];

